602 465 10 0 1439
623 2493 4 1197 1282
2061 23 3 851 859
725 905 2 620 724
624 2297 3 615 625
342 100 3 1434 1438
40 1227 4 1039 1118
439 1927 1 550 579
1226 342 3 802 818
1749 2026 1 842 935
1002 1620 1 1352 1413
